p cnf 455 2088
-66 -6 -1 0
-66 6 1 0
66 -6 1 0
66 6 -1 0
-67 -7 -2 0
-67 7 2 0
67 -7 2 0
67 7 -2 0
-68 -8 -3 0
-68 8 3 0
68 -8 3 0
68 8 -3 0
-69 -9 -4 0
-69 9 4 0
69 -9 4 0
69 9 -4 0
-70 -10 -5 0
-70 10 5 0
70 -10 5 0
70 10 -5 0
-66 -67 0
-66 -68 0
-66 -69 0
-66 -70 0
-67 -68 0
-67 -69 0
-67 -70 0
-68 -69 0
-68 -70 0
-69 -70 0
66 67 68 69 70 0
-71 -11 -6 0
-71 11 6 0
71 -11 6 0
71 11 -6 0
-72 -12 -7 0
-72 12 7 0
72 -12 7 0
72 12 -7 0
-73 -13 -8 0
-73 13 8 0
73 -13 8 0
73 13 -8 0
-74 -14 -9 0
-74 14 9 0
74 -14 9 0
74 14 -9 0
-75 -15 -10 0
-75 15 10 0
75 -15 10 0
75 15 -10 0
-71 -72 0
-71 -73 0
-71 -74 0
-71 -75 0
-72 -73 0
-72 -74 0
-72 -75 0
-73 -74 0
-73 -75 0
-74 -75 0
71 72 73 74 75 0
-76 -16 -11 0
-76 16 11 0
76 -16 11 0
76 16 -11 0
-77 -17 -12 0
-77 17 12 0
77 -17 12 0
77 17 -12 0
-78 -18 -13 0
-78 18 13 0
78 -18 13 0
78 18 -13 0
-79 -19 -14 0
-79 19 14 0
79 -19 14 0
79 19 -14 0
-80 -20 -15 0
-80 20 15 0
80 -20 15 0
80 20 -15 0
-76 -77 0
-76 -78 0
-76 -79 0
-76 -80 0
-77 -78 0
-77 -79 0
-77 -80 0
-78 -79 0
-78 -80 0
-79 -80 0
76 77 78 79 80 0
-81 -21 -16 0
-81 21 16 0
81 -21 16 0
81 21 -16 0
-82 -22 -17 0
-82 22 17 0
82 -22 17 0
82 22 -17 0
-83 -23 -18 0
-83 23 18 0
83 -23 18 0
83 23 -18 0
-84 -24 -19 0
-84 24 19 0
84 -24 19 0
84 24 -19 0
-85 -25 -20 0
-85 25 20 0
85 -25 20 0
85 25 -20 0
-81 -82 0
-81 -83 0
-81 -84 0
-81 -85 0
-82 -83 0
-82 -84 0
-82 -85 0
-83 -84 0
-83 -85 0
-84 -85 0
81 82 83 84 85 0
-86 -26 -21 0
-86 26 21 0
86 -26 21 0
86 26 -21 0
-87 -27 -22 0
-87 27 22 0
87 -27 22 0
87 27 -22 0
-88 -28 -23 0
-88 28 23 0
88 -28 23 0
88 28 -23 0
-89 -29 -24 0
-89 29 24 0
89 -29 24 0
89 29 -24 0
-90 -30 -25 0
-90 30 25 0
90 -30 25 0
90 30 -25 0
-86 -87 0
-86 -88 0
-86 -89 0
-86 -90 0
-87 -88 0
-87 -89 0
-87 -90 0
-88 -89 0
-88 -90 0
-89 -90 0
86 87 88 89 90 0
-91 -31 -26 0
-91 31 26 0
91 -31 26 0
91 31 -26 0
-92 -32 -27 0
-92 32 27 0
92 -32 27 0
92 32 -27 0
-93 -33 -28 0
-93 33 28 0
93 -33 28 0
93 33 -28 0
-94 -34 -29 0
-94 34 29 0
94 -34 29 0
94 34 -29 0
-95 -35 -30 0
-95 35 30 0
95 -35 30 0
95 35 -30 0
-91 -92 0
-91 -93 0
-91 -94 0
-91 -95 0
-92 -93 0
-92 -94 0
-92 -95 0
-93 -94 0
-93 -95 0
-94 -95 0
91 92 93 94 95 0
-96 -36 -31 0
-96 36 31 0
96 -36 31 0
96 36 -31 0
-97 -37 -32 0
-97 37 32 0
97 -37 32 0
97 37 -32 0
-98 -38 -33 0
-98 38 33 0
98 -38 33 0
98 38 -33 0
-99 -39 -34 0
-99 39 34 0
99 -39 34 0
99 39 -34 0
-100 -40 -35 0
-100 40 35 0
100 -40 35 0
100 40 -35 0
-96 -97 0
-96 -98 0
-96 -99 0
-96 -100 0
-97 -98 0
-97 -99 0
-97 -100 0
-98 -99 0
-98 -100 0
-99 -100 0
96 97 98 99 100 0
-101 -41 -36 0
-101 41 36 0
101 -41 36 0
101 41 -36 0
-102 -42 -37 0
-102 42 37 0
102 -42 37 0
102 42 -37 0
-103 -43 -38 0
-103 43 38 0
103 -43 38 0
103 43 -38 0
-104 -44 -39 0
-104 44 39 0
104 -44 39 0
104 44 -39 0
-105 -45 -40 0
-105 45 40 0
105 -45 40 0
105 45 -40 0
-101 -102 0
-101 -103 0
-101 -104 0
-101 -105 0
-102 -103 0
-102 -104 0
-102 -105 0
-103 -104 0
-103 -105 0
-104 -105 0
101 102 103 104 105 0
-106 -46 -41 0
-106 46 41 0
106 -46 41 0
106 46 -41 0
-107 -47 -42 0
-107 47 42 0
107 -47 42 0
107 47 -42 0
-108 -48 -43 0
-108 48 43 0
108 -48 43 0
108 48 -43 0
-109 -49 -44 0
-109 49 44 0
109 -49 44 0
109 49 -44 0
-110 -50 -45 0
-110 50 45 0
110 -50 45 0
110 50 -45 0
-106 -107 0
-106 -108 0
-106 -109 0
-106 -110 0
-107 -108 0
-107 -109 0
-107 -110 0
-108 -109 0
-108 -110 0
-109 -110 0
106 107 108 109 110 0
-111 -51 -46 0
-111 51 46 0
111 -51 46 0
111 51 -46 0
-112 -52 -47 0
-112 52 47 0
112 -52 47 0
112 52 -47 0
-113 -53 -48 0
-113 53 48 0
113 -53 48 0
113 53 -48 0
-114 -54 -49 0
-114 54 49 0
114 -54 49 0
114 54 -49 0
-115 -55 -50 0
-115 55 50 0
115 -55 50 0
115 55 -50 0
-111 -112 0
-111 -113 0
-111 -114 0
-111 -115 0
-112 -113 0
-112 -114 0
-112 -115 0
-113 -114 0
-113 -115 0
-114 -115 0
111 112 113 114 115 0
-116 -56 -51 0
-116 56 51 0
116 -56 51 0
116 56 -51 0
-117 -57 -52 0
-117 57 52 0
117 -57 52 0
117 57 -52 0
-118 -58 -53 0
-118 58 53 0
118 -58 53 0
118 58 -53 0
-119 -59 -54 0
-119 59 54 0
119 -59 54 0
119 59 -54 0
-120 -60 -55 0
-120 60 55 0
120 -60 55 0
120 60 -55 0
-116 -117 0
-116 -118 0
-116 -119 0
-116 -120 0
-117 -118 0
-117 -119 0
-117 -120 0
-118 -119 0
-118 -120 0
-119 -120 0
116 117 118 119 120 0
-121 -61 -56 0
-121 61 56 0
121 -61 56 0
121 61 -56 0
-122 -62 -57 0
-122 62 57 0
122 -62 57 0
122 62 -57 0
-123 -63 -58 0
-123 63 58 0
123 -63 58 0
123 63 -58 0
-124 -64 -59 0
-124 64 59 0
124 -64 59 0
124 64 -59 0
-125 -65 -60 0
-125 65 60 0
125 -65 60 0
125 65 -60 0
-121 -122 0
-121 -123 0
-121 -124 0
-121 -125 0
-122 -123 0
-122 -124 0
-122 -125 0
-123 -124 0
-123 -125 0
-124 -125 0
121 122 123 124 125 0
-126 -11 -1 0
-126 11 1 0
126 -11 1 0
126 11 -1 0
-127 -12 -2 0
-127 12 2 0
127 -12 2 0
127 12 -2 0
-128 -13 -3 0
-128 13 3 0
128 -13 3 0
128 13 -3 0
-129 -14 -4 0
-129 14 4 0
129 -14 4 0
129 14 -4 0
-130 -15 -5 0
-130 15 5 0
130 -15 5 0
130 15 -5 0
126 127 128 129 130 0
-126 127 128 129 130 0
126 -127 128 129 130 0
126 127 -128 129 130 0
126 127 128 -129 130 0
126 127 128 129 -130 0
-131 -16 -6 0
-131 16 6 0
131 -16 6 0
131 16 -6 0
-132 -17 -7 0
-132 17 7 0
132 -17 7 0
132 17 -7 0
-133 -18 -8 0
-133 18 8 0
133 -18 8 0
133 18 -8 0
-134 -19 -9 0
-134 19 9 0
134 -19 9 0
134 19 -9 0
-135 -20 -10 0
-135 20 10 0
135 -20 10 0
135 20 -10 0
131 132 133 134 135 0
-131 132 133 134 135 0
131 -132 133 134 135 0
131 132 -133 134 135 0
131 132 133 -134 135 0
131 132 133 134 -135 0
-136 -16 -1 0
-136 16 1 0
136 -16 1 0
136 16 -1 0
-137 -17 -2 0
-137 17 2 0
137 -17 2 0
137 17 -2 0
-138 -18 -3 0
-138 18 3 0
138 -18 3 0
138 18 -3 0
-139 -19 -4 0
-139 19 4 0
139 -19 4 0
139 19 -4 0
-140 -20 -5 0
-140 20 5 0
140 -20 5 0
140 20 -5 0
136 137 138 139 140 0
-136 137 138 139 140 0
136 -137 138 139 140 0
136 137 -138 139 140 0
136 137 138 -139 140 0
136 137 138 139 -140 0
-141 -21 -11 0
-141 21 11 0
141 -21 11 0
141 21 -11 0
-142 -22 -12 0
-142 22 12 0
142 -22 12 0
142 22 -12 0
-143 -23 -13 0
-143 23 13 0
143 -23 13 0
143 23 -13 0
-144 -24 -14 0
-144 24 14 0
144 -24 14 0
144 24 -14 0
-145 -25 -15 0
-145 25 15 0
145 -25 15 0
145 25 -15 0
141 142 143 144 145 0
-141 142 143 144 145 0
141 -142 143 144 145 0
141 142 -143 144 145 0
141 142 143 -144 145 0
141 142 143 144 -145 0
-146 -21 -6 0
-146 21 6 0
146 -21 6 0
146 21 -6 0
-147 -22 -7 0
-147 22 7 0
147 -22 7 0
147 22 -7 0
-148 -23 -8 0
-148 23 8 0
148 -23 8 0
148 23 -8 0
-149 -24 -9 0
-149 24 9 0
149 -24 9 0
149 24 -9 0
-150 -25 -10 0
-150 25 10 0
150 -25 10 0
150 25 -10 0
146 147 148 149 150 0
-146 147 148 149 150 0
146 -147 148 149 150 0
146 147 -148 149 150 0
146 147 148 -149 150 0
146 147 148 149 -150 0
-151 -21 -1 0
-151 21 1 0
151 -21 1 0
151 21 -1 0
-152 -22 -2 0
-152 22 2 0
152 -22 2 0
152 22 -2 0
-153 -23 -3 0
-153 23 3 0
153 -23 3 0
153 23 -3 0
-154 -24 -4 0
-154 24 4 0
154 -24 4 0
154 24 -4 0
-155 -25 -5 0
-155 25 5 0
155 -25 5 0
155 25 -5 0
151 152 153 154 155 0
-151 152 153 154 155 0
151 -152 153 154 155 0
151 152 -153 154 155 0
151 152 153 -154 155 0
151 152 153 154 -155 0
-156 -26 -16 0
-156 26 16 0
156 -26 16 0
156 26 -16 0
-157 -27 -17 0
-157 27 17 0
157 -27 17 0
157 27 -17 0
-158 -28 -18 0
-158 28 18 0
158 -28 18 0
158 28 -18 0
-159 -29 -19 0
-159 29 19 0
159 -29 19 0
159 29 -19 0
-160 -30 -20 0
-160 30 20 0
160 -30 20 0
160 30 -20 0
156 157 158 159 160 0
-156 157 158 159 160 0
156 -157 158 159 160 0
156 157 -158 159 160 0
156 157 158 -159 160 0
156 157 158 159 -160 0
-161 -26 -11 0
-161 26 11 0
161 -26 11 0
161 26 -11 0
-162 -27 -12 0
-162 27 12 0
162 -27 12 0
162 27 -12 0
-163 -28 -13 0
-163 28 13 0
163 -28 13 0
163 28 -13 0
-164 -29 -14 0
-164 29 14 0
164 -29 14 0
164 29 -14 0
-165 -30 -15 0
-165 30 15 0
165 -30 15 0
165 30 -15 0
161 162 163 164 165 0
-161 162 163 164 165 0
161 -162 163 164 165 0
161 162 -163 164 165 0
161 162 163 -164 165 0
161 162 163 164 -165 0
-166 -26 -6 0
-166 26 6 0
166 -26 6 0
166 26 -6 0
-167 -27 -7 0
-167 27 7 0
167 -27 7 0
167 27 -7 0
-168 -28 -8 0
-168 28 8 0
168 -28 8 0
168 28 -8 0
-169 -29 -9 0
-169 29 9 0
169 -29 9 0
169 29 -9 0
-170 -30 -10 0
-170 30 10 0
170 -30 10 0
170 30 -10 0
166 167 168 169 170 0
-166 167 168 169 170 0
166 -167 168 169 170 0
166 167 -168 169 170 0
166 167 168 -169 170 0
166 167 168 169 -170 0
-171 -26 -1 0
-171 26 1 0
171 -26 1 0
171 26 -1 0
-172 -27 -2 0
-172 27 2 0
172 -27 2 0
172 27 -2 0
-173 -28 -3 0
-173 28 3 0
173 -28 3 0
173 28 -3 0
-174 -29 -4 0
-174 29 4 0
174 -29 4 0
174 29 -4 0
-175 -30 -5 0
-175 30 5 0
175 -30 5 0
175 30 -5 0
171 172 173 174 175 0
-171 172 173 174 175 0
171 -172 173 174 175 0
171 172 -173 174 175 0
171 172 173 -174 175 0
171 172 173 174 -175 0
-176 -31 -21 0
-176 31 21 0
176 -31 21 0
176 31 -21 0
-177 -32 -22 0
-177 32 22 0
177 -32 22 0
177 32 -22 0
-178 -33 -23 0
-178 33 23 0
178 -33 23 0
178 33 -23 0
-179 -34 -24 0
-179 34 24 0
179 -34 24 0
179 34 -24 0
-180 -35 -25 0
-180 35 25 0
180 -35 25 0
180 35 -25 0
176 177 178 179 180 0
-176 177 178 179 180 0
176 -177 178 179 180 0
176 177 -178 179 180 0
176 177 178 -179 180 0
176 177 178 179 -180 0
-181 -31 -16 0
-181 31 16 0
181 -31 16 0
181 31 -16 0
-182 -32 -17 0
-182 32 17 0
182 -32 17 0
182 32 -17 0
-183 -33 -18 0
-183 33 18 0
183 -33 18 0
183 33 -18 0
-184 -34 -19 0
-184 34 19 0
184 -34 19 0
184 34 -19 0
-185 -35 -20 0
-185 35 20 0
185 -35 20 0
185 35 -20 0
181 182 183 184 185 0
-181 182 183 184 185 0
181 -182 183 184 185 0
181 182 -183 184 185 0
181 182 183 -184 185 0
181 182 183 184 -185 0
-186 -31 -11 0
-186 31 11 0
186 -31 11 0
186 31 -11 0
-187 -32 -12 0
-187 32 12 0
187 -32 12 0
187 32 -12 0
-188 -33 -13 0
-188 33 13 0
188 -33 13 0
188 33 -13 0
-189 -34 -14 0
-189 34 14 0
189 -34 14 0
189 34 -14 0
-190 -35 -15 0
-190 35 15 0
190 -35 15 0
190 35 -15 0
186 187 188 189 190 0
-186 187 188 189 190 0
186 -187 188 189 190 0
186 187 -188 189 190 0
186 187 188 -189 190 0
186 187 188 189 -190 0
-191 -31 -6 0
-191 31 6 0
191 -31 6 0
191 31 -6 0
-192 -32 -7 0
-192 32 7 0
192 -32 7 0
192 32 -7 0
-193 -33 -8 0
-193 33 8 0
193 -33 8 0
193 33 -8 0
-194 -34 -9 0
-194 34 9 0
194 -34 9 0
194 34 -9 0
-195 -35 -10 0
-195 35 10 0
195 -35 10 0
195 35 -10 0
191 192 193 194 195 0
-191 192 193 194 195 0
191 -192 193 194 195 0
191 192 -193 194 195 0
191 192 193 -194 195 0
191 192 193 194 -195 0
-196 -31 -1 0
-196 31 1 0
196 -31 1 0
196 31 -1 0
-197 -32 -2 0
-197 32 2 0
197 -32 2 0
197 32 -2 0
-198 -33 -3 0
-198 33 3 0
198 -33 3 0
198 33 -3 0
-199 -34 -4 0
-199 34 4 0
199 -34 4 0
199 34 -4 0
-200 -35 -5 0
-200 35 5 0
200 -35 5 0
200 35 -5 0
196 197 198 199 200 0
-196 197 198 199 200 0
196 -197 198 199 200 0
196 197 -198 199 200 0
196 197 198 -199 200 0
196 197 198 199 -200 0
-201 -36 -26 0
-201 36 26 0
201 -36 26 0
201 36 -26 0
-202 -37 -27 0
-202 37 27 0
202 -37 27 0
202 37 -27 0
-203 -38 -28 0
-203 38 28 0
203 -38 28 0
203 38 -28 0
-204 -39 -29 0
-204 39 29 0
204 -39 29 0
204 39 -29 0
-205 -40 -30 0
-205 40 30 0
205 -40 30 0
205 40 -30 0
201 202 203 204 205 0
-201 202 203 204 205 0
201 -202 203 204 205 0
201 202 -203 204 205 0
201 202 203 -204 205 0
201 202 203 204 -205 0
-206 -36 -21 0
-206 36 21 0
206 -36 21 0
206 36 -21 0
-207 -37 -22 0
-207 37 22 0
207 -37 22 0
207 37 -22 0
-208 -38 -23 0
-208 38 23 0
208 -38 23 0
208 38 -23 0
-209 -39 -24 0
-209 39 24 0
209 -39 24 0
209 39 -24 0
-210 -40 -25 0
-210 40 25 0
210 -40 25 0
210 40 -25 0
206 207 208 209 210 0
-206 207 208 209 210 0
206 -207 208 209 210 0
206 207 -208 209 210 0
206 207 208 -209 210 0
206 207 208 209 -210 0
-211 -36 -16 0
-211 36 16 0
211 -36 16 0
211 36 -16 0
-212 -37 -17 0
-212 37 17 0
212 -37 17 0
212 37 -17 0
-213 -38 -18 0
-213 38 18 0
213 -38 18 0
213 38 -18 0
-214 -39 -19 0
-214 39 19 0
214 -39 19 0
214 39 -19 0
-215 -40 -20 0
-215 40 20 0
215 -40 20 0
215 40 -20 0
211 212 213 214 215 0
-211 212 213 214 215 0
211 -212 213 214 215 0
211 212 -213 214 215 0
211 212 213 -214 215 0
211 212 213 214 -215 0
-216 -36 -11 0
-216 36 11 0
216 -36 11 0
216 36 -11 0
-217 -37 -12 0
-217 37 12 0
217 -37 12 0
217 37 -12 0
-218 -38 -13 0
-218 38 13 0
218 -38 13 0
218 38 -13 0
-219 -39 -14 0
-219 39 14 0
219 -39 14 0
219 39 -14 0
-220 -40 -15 0
-220 40 15 0
220 -40 15 0
220 40 -15 0
216 217 218 219 220 0
-216 217 218 219 220 0
216 -217 218 219 220 0
216 217 -218 219 220 0
216 217 218 -219 220 0
216 217 218 219 -220 0
-221 -36 -6 0
-221 36 6 0
221 -36 6 0
221 36 -6 0
-222 -37 -7 0
-222 37 7 0
222 -37 7 0
222 37 -7 0
-223 -38 -8 0
-223 38 8 0
223 -38 8 0
223 38 -8 0
-224 -39 -9 0
-224 39 9 0
224 -39 9 0
224 39 -9 0
-225 -40 -10 0
-225 40 10 0
225 -40 10 0
225 40 -10 0
221 222 223 224 225 0
-221 222 223 224 225 0
221 -222 223 224 225 0
221 222 -223 224 225 0
221 222 223 -224 225 0
221 222 223 224 -225 0
-226 -36 -1 0
-226 36 1 0
226 -36 1 0
226 36 -1 0
-227 -37 -2 0
-227 37 2 0
227 -37 2 0
227 37 -2 0
-228 -38 -3 0
-228 38 3 0
228 -38 3 0
228 38 -3 0
-229 -39 -4 0
-229 39 4 0
229 -39 4 0
229 39 -4 0
-230 -40 -5 0
-230 40 5 0
230 -40 5 0
230 40 -5 0
226 227 228 229 230 0
-226 227 228 229 230 0
226 -227 228 229 230 0
226 227 -228 229 230 0
226 227 228 -229 230 0
226 227 228 229 -230 0
-231 -41 -31 0
-231 41 31 0
231 -41 31 0
231 41 -31 0
-232 -42 -32 0
-232 42 32 0
232 -42 32 0
232 42 -32 0
-233 -43 -33 0
-233 43 33 0
233 -43 33 0
233 43 -33 0
-234 -44 -34 0
-234 44 34 0
234 -44 34 0
234 44 -34 0
-235 -45 -35 0
-235 45 35 0
235 -45 35 0
235 45 -35 0
231 232 233 234 235 0
-231 232 233 234 235 0
231 -232 233 234 235 0
231 232 -233 234 235 0
231 232 233 -234 235 0
231 232 233 234 -235 0
-236 -41 -26 0
-236 41 26 0
236 -41 26 0
236 41 -26 0
-237 -42 -27 0
-237 42 27 0
237 -42 27 0
237 42 -27 0
-238 -43 -28 0
-238 43 28 0
238 -43 28 0
238 43 -28 0
-239 -44 -29 0
-239 44 29 0
239 -44 29 0
239 44 -29 0
-240 -45 -30 0
-240 45 30 0
240 -45 30 0
240 45 -30 0
236 237 238 239 240 0
-236 237 238 239 240 0
236 -237 238 239 240 0
236 237 -238 239 240 0
236 237 238 -239 240 0
236 237 238 239 -240 0
-241 -41 -21 0
-241 41 21 0
241 -41 21 0
241 41 -21 0
-242 -42 -22 0
-242 42 22 0
242 -42 22 0
242 42 -22 0
-243 -43 -23 0
-243 43 23 0
243 -43 23 0
243 43 -23 0
-244 -44 -24 0
-244 44 24 0
244 -44 24 0
244 44 -24 0
-245 -45 -25 0
-245 45 25 0
245 -45 25 0
245 45 -25 0
241 242 243 244 245 0
-241 242 243 244 245 0
241 -242 243 244 245 0
241 242 -243 244 245 0
241 242 243 -244 245 0
241 242 243 244 -245 0
-246 -41 -16 0
-246 41 16 0
246 -41 16 0
246 41 -16 0
-247 -42 -17 0
-247 42 17 0
247 -42 17 0
247 42 -17 0
-248 -43 -18 0
-248 43 18 0
248 -43 18 0
248 43 -18 0
-249 -44 -19 0
-249 44 19 0
249 -44 19 0
249 44 -19 0
-250 -45 -20 0
-250 45 20 0
250 -45 20 0
250 45 -20 0
246 247 248 249 250 0
-246 247 248 249 250 0
246 -247 248 249 250 0
246 247 -248 249 250 0
246 247 248 -249 250 0
246 247 248 249 -250 0
-251 -41 -11 0
-251 41 11 0
251 -41 11 0
251 41 -11 0
-252 -42 -12 0
-252 42 12 0
252 -42 12 0
252 42 -12 0
-253 -43 -13 0
-253 43 13 0
253 -43 13 0
253 43 -13 0
-254 -44 -14 0
-254 44 14 0
254 -44 14 0
254 44 -14 0
-255 -45 -15 0
-255 45 15 0
255 -45 15 0
255 45 -15 0
251 252 253 254 255 0
-251 252 253 254 255 0
251 -252 253 254 255 0
251 252 -253 254 255 0
251 252 253 -254 255 0
251 252 253 254 -255 0
-256 -41 -6 0
-256 41 6 0
256 -41 6 0
256 41 -6 0
-257 -42 -7 0
-257 42 7 0
257 -42 7 0
257 42 -7 0
-258 -43 -8 0
-258 43 8 0
258 -43 8 0
258 43 -8 0
-259 -44 -9 0
-259 44 9 0
259 -44 9 0
259 44 -9 0
-260 -45 -10 0
-260 45 10 0
260 -45 10 0
260 45 -10 0
256 257 258 259 260 0
-256 257 258 259 260 0
256 -257 258 259 260 0
256 257 -258 259 260 0
256 257 258 -259 260 0
256 257 258 259 -260 0
-261 -41 -1 0
-261 41 1 0
261 -41 1 0
261 41 -1 0
-262 -42 -2 0
-262 42 2 0
262 -42 2 0
262 42 -2 0
-263 -43 -3 0
-263 43 3 0
263 -43 3 0
263 43 -3 0
-264 -44 -4 0
-264 44 4 0
264 -44 4 0
264 44 -4 0
-265 -45 -5 0
-265 45 5 0
265 -45 5 0
265 45 -5 0
261 262 263 264 265 0
-261 262 263 264 265 0
261 -262 263 264 265 0
261 262 -263 264 265 0
261 262 263 -264 265 0
261 262 263 264 -265 0
-266 -46 -36 0
-266 46 36 0
266 -46 36 0
266 46 -36 0
-267 -47 -37 0
-267 47 37 0
267 -47 37 0
267 47 -37 0
-268 -48 -38 0
-268 48 38 0
268 -48 38 0
268 48 -38 0
-269 -49 -39 0
-269 49 39 0
269 -49 39 0
269 49 -39 0
-270 -50 -40 0
-270 50 40 0
270 -50 40 0
270 50 -40 0
266 267 268 269 270 0
-266 267 268 269 270 0
266 -267 268 269 270 0
266 267 -268 269 270 0
266 267 268 -269 270 0
266 267 268 269 -270 0
-271 -46 -31 0
-271 46 31 0
271 -46 31 0
271 46 -31 0
-272 -47 -32 0
-272 47 32 0
272 -47 32 0
272 47 -32 0
-273 -48 -33 0
-273 48 33 0
273 -48 33 0
273 48 -33 0
-274 -49 -34 0
-274 49 34 0
274 -49 34 0
274 49 -34 0
-275 -50 -35 0
-275 50 35 0
275 -50 35 0
275 50 -35 0
271 272 273 274 275 0
-271 272 273 274 275 0
271 -272 273 274 275 0
271 272 -273 274 275 0
271 272 273 -274 275 0
271 272 273 274 -275 0
-276 -46 -26 0
-276 46 26 0
276 -46 26 0
276 46 -26 0
-277 -47 -27 0
-277 47 27 0
277 -47 27 0
277 47 -27 0
-278 -48 -28 0
-278 48 28 0
278 -48 28 0
278 48 -28 0
-279 -49 -29 0
-279 49 29 0
279 -49 29 0
279 49 -29 0
-280 -50 -30 0
-280 50 30 0
280 -50 30 0
280 50 -30 0
276 277 278 279 280 0
-276 277 278 279 280 0
276 -277 278 279 280 0
276 277 -278 279 280 0
276 277 278 -279 280 0
276 277 278 279 -280 0
-281 -46 -21 0
-281 46 21 0
281 -46 21 0
281 46 -21 0
-282 -47 -22 0
-282 47 22 0
282 -47 22 0
282 47 -22 0
-283 -48 -23 0
-283 48 23 0
283 -48 23 0
283 48 -23 0
-284 -49 -24 0
-284 49 24 0
284 -49 24 0
284 49 -24 0
-285 -50 -25 0
-285 50 25 0
285 -50 25 0
285 50 -25 0
281 282 283 284 285 0
-281 282 283 284 285 0
281 -282 283 284 285 0
281 282 -283 284 285 0
281 282 283 -284 285 0
281 282 283 284 -285 0
-286 -46 -16 0
-286 46 16 0
286 -46 16 0
286 46 -16 0
-287 -47 -17 0
-287 47 17 0
287 -47 17 0
287 47 -17 0
-288 -48 -18 0
-288 48 18 0
288 -48 18 0
288 48 -18 0
-289 -49 -19 0
-289 49 19 0
289 -49 19 0
289 49 -19 0
-290 -50 -20 0
-290 50 20 0
290 -50 20 0
290 50 -20 0
286 287 288 289 290 0
-286 287 288 289 290 0
286 -287 288 289 290 0
286 287 -288 289 290 0
286 287 288 -289 290 0
286 287 288 289 -290 0
-291 -46 -11 0
-291 46 11 0
291 -46 11 0
291 46 -11 0
-292 -47 -12 0
-292 47 12 0
292 -47 12 0
292 47 -12 0
-293 -48 -13 0
-293 48 13 0
293 -48 13 0
293 48 -13 0
-294 -49 -14 0
-294 49 14 0
294 -49 14 0
294 49 -14 0
-295 -50 -15 0
-295 50 15 0
295 -50 15 0
295 50 -15 0
291 292 293 294 295 0
-291 292 293 294 295 0
291 -292 293 294 295 0
291 292 -293 294 295 0
291 292 293 -294 295 0
291 292 293 294 -295 0
-296 -46 -6 0
-296 46 6 0
296 -46 6 0
296 46 -6 0
-297 -47 -7 0
-297 47 7 0
297 -47 7 0
297 47 -7 0
-298 -48 -8 0
-298 48 8 0
298 -48 8 0
298 48 -8 0
-299 -49 -9 0
-299 49 9 0
299 -49 9 0
299 49 -9 0
-300 -50 -10 0
-300 50 10 0
300 -50 10 0
300 50 -10 0
296 297 298 299 300 0
-296 297 298 299 300 0
296 -297 298 299 300 0
296 297 -298 299 300 0
296 297 298 -299 300 0
296 297 298 299 -300 0
-301 -46 -1 0
-301 46 1 0
301 -46 1 0
301 46 -1 0
-302 -47 -2 0
-302 47 2 0
302 -47 2 0
302 47 -2 0
-303 -48 -3 0
-303 48 3 0
303 -48 3 0
303 48 -3 0
-304 -49 -4 0
-304 49 4 0
304 -49 4 0
304 49 -4 0
-305 -50 -5 0
-305 50 5 0
305 -50 5 0
305 50 -5 0
301 302 303 304 305 0
-301 302 303 304 305 0
301 -302 303 304 305 0
301 302 -303 304 305 0
301 302 303 -304 305 0
301 302 303 304 -305 0
-306 -51 -41 0
-306 51 41 0
306 -51 41 0
306 51 -41 0
-307 -52 -42 0
-307 52 42 0
307 -52 42 0
307 52 -42 0
-308 -53 -43 0
-308 53 43 0
308 -53 43 0
308 53 -43 0
-309 -54 -44 0
-309 54 44 0
309 -54 44 0
309 54 -44 0
-310 -55 -45 0
-310 55 45 0
310 -55 45 0
310 55 -45 0
306 307 308 309 310 0
-306 307 308 309 310 0
306 -307 308 309 310 0
306 307 -308 309 310 0
306 307 308 -309 310 0
306 307 308 309 -310 0
-311 -51 -36 0
-311 51 36 0
311 -51 36 0
311 51 -36 0
-312 -52 -37 0
-312 52 37 0
312 -52 37 0
312 52 -37 0
-313 -53 -38 0
-313 53 38 0
313 -53 38 0
313 53 -38 0
-314 -54 -39 0
-314 54 39 0
314 -54 39 0
314 54 -39 0
-315 -55 -40 0
-315 55 40 0
315 -55 40 0
315 55 -40 0
311 312 313 314 315 0
-311 312 313 314 315 0
311 -312 313 314 315 0
311 312 -313 314 315 0
311 312 313 -314 315 0
311 312 313 314 -315 0
-316 -51 -31 0
-316 51 31 0
316 -51 31 0
316 51 -31 0
-317 -52 -32 0
-317 52 32 0
317 -52 32 0
317 52 -32 0
-318 -53 -33 0
-318 53 33 0
318 -53 33 0
318 53 -33 0
-319 -54 -34 0
-319 54 34 0
319 -54 34 0
319 54 -34 0
-320 -55 -35 0
-320 55 35 0
320 -55 35 0
320 55 -35 0
316 317 318 319 320 0
-316 317 318 319 320 0
316 -317 318 319 320 0
316 317 -318 319 320 0
316 317 318 -319 320 0
316 317 318 319 -320 0
-321 -51 -26 0
-321 51 26 0
321 -51 26 0
321 51 -26 0
-322 -52 -27 0
-322 52 27 0
322 -52 27 0
322 52 -27 0
-323 -53 -28 0
-323 53 28 0
323 -53 28 0
323 53 -28 0
-324 -54 -29 0
-324 54 29 0
324 -54 29 0
324 54 -29 0
-325 -55 -30 0
-325 55 30 0
325 -55 30 0
325 55 -30 0
321 322 323 324 325 0
-321 322 323 324 325 0
321 -322 323 324 325 0
321 322 -323 324 325 0
321 322 323 -324 325 0
321 322 323 324 -325 0
-326 -51 -21 0
-326 51 21 0
326 -51 21 0
326 51 -21 0
-327 -52 -22 0
-327 52 22 0
327 -52 22 0
327 52 -22 0
-328 -53 -23 0
-328 53 23 0
328 -53 23 0
328 53 -23 0
-329 -54 -24 0
-329 54 24 0
329 -54 24 0
329 54 -24 0
-330 -55 -25 0
-330 55 25 0
330 -55 25 0
330 55 -25 0
326 327 328 329 330 0
-326 327 328 329 330 0
326 -327 328 329 330 0
326 327 -328 329 330 0
326 327 328 -329 330 0
326 327 328 329 -330 0
-331 -51 -16 0
-331 51 16 0
331 -51 16 0
331 51 -16 0
-332 -52 -17 0
-332 52 17 0
332 -52 17 0
332 52 -17 0
-333 -53 -18 0
-333 53 18 0
333 -53 18 0
333 53 -18 0
-334 -54 -19 0
-334 54 19 0
334 -54 19 0
334 54 -19 0
-335 -55 -20 0
-335 55 20 0
335 -55 20 0
335 55 -20 0
331 332 333 334 335 0
-331 332 333 334 335 0
331 -332 333 334 335 0
331 332 -333 334 335 0
331 332 333 -334 335 0
331 332 333 334 -335 0
-336 -51 -11 0
-336 51 11 0
336 -51 11 0
336 51 -11 0
-337 -52 -12 0
-337 52 12 0
337 -52 12 0
337 52 -12 0
-338 -53 -13 0
-338 53 13 0
338 -53 13 0
338 53 -13 0
-339 -54 -14 0
-339 54 14 0
339 -54 14 0
339 54 -14 0
-340 -55 -15 0
-340 55 15 0
340 -55 15 0
340 55 -15 0
336 337 338 339 340 0
-336 337 338 339 340 0
336 -337 338 339 340 0
336 337 -338 339 340 0
336 337 338 -339 340 0
336 337 338 339 -340 0
-341 -51 -6 0
-341 51 6 0
341 -51 6 0
341 51 -6 0
-342 -52 -7 0
-342 52 7 0
342 -52 7 0
342 52 -7 0
-343 -53 -8 0
-343 53 8 0
343 -53 8 0
343 53 -8 0
-344 -54 -9 0
-344 54 9 0
344 -54 9 0
344 54 -9 0
-345 -55 -10 0
-345 55 10 0
345 -55 10 0
345 55 -10 0
341 342 343 344 345 0
-341 342 343 344 345 0
341 -342 343 344 345 0
341 342 -343 344 345 0
341 342 343 -344 345 0
341 342 343 344 -345 0
-346 -51 -1 0
-346 51 1 0
346 -51 1 0
346 51 -1 0
-347 -52 -2 0
-347 52 2 0
347 -52 2 0
347 52 -2 0
-348 -53 -3 0
-348 53 3 0
348 -53 3 0
348 53 -3 0
-349 -54 -4 0
-349 54 4 0
349 -54 4 0
349 54 -4 0
-350 -55 -5 0
-350 55 5 0
350 -55 5 0
350 55 -5 0
346 347 348 349 350 0
-346 347 348 349 350 0
346 -347 348 349 350 0
346 347 -348 349 350 0
346 347 348 -349 350 0
346 347 348 349 -350 0
-351 -56 -46 0
-351 56 46 0
351 -56 46 0
351 56 -46 0
-352 -57 -47 0
-352 57 47 0
352 -57 47 0
352 57 -47 0
-353 -58 -48 0
-353 58 48 0
353 -58 48 0
353 58 -48 0
-354 -59 -49 0
-354 59 49 0
354 -59 49 0
354 59 -49 0
-355 -60 -50 0
-355 60 50 0
355 -60 50 0
355 60 -50 0
351 352 353 354 355 0
-351 352 353 354 355 0
351 -352 353 354 355 0
351 352 -353 354 355 0
351 352 353 -354 355 0
351 352 353 354 -355 0
-356 -56 -41 0
-356 56 41 0
356 -56 41 0
356 56 -41 0
-357 -57 -42 0
-357 57 42 0
357 -57 42 0
357 57 -42 0
-358 -58 -43 0
-358 58 43 0
358 -58 43 0
358 58 -43 0
-359 -59 -44 0
-359 59 44 0
359 -59 44 0
359 59 -44 0
-360 -60 -45 0
-360 60 45 0
360 -60 45 0
360 60 -45 0
356 357 358 359 360 0
-356 357 358 359 360 0
356 -357 358 359 360 0
356 357 -358 359 360 0
356 357 358 -359 360 0
356 357 358 359 -360 0
-361 -56 -36 0
-361 56 36 0
361 -56 36 0
361 56 -36 0
-362 -57 -37 0
-362 57 37 0
362 -57 37 0
362 57 -37 0
-363 -58 -38 0
-363 58 38 0
363 -58 38 0
363 58 -38 0
-364 -59 -39 0
-364 59 39 0
364 -59 39 0
364 59 -39 0
-365 -60 -40 0
-365 60 40 0
365 -60 40 0
365 60 -40 0
361 362 363 364 365 0
-361 362 363 364 365 0
361 -362 363 364 365 0
361 362 -363 364 365 0
361 362 363 -364 365 0
361 362 363 364 -365 0
-366 -56 -31 0
-366 56 31 0
366 -56 31 0
366 56 -31 0
-367 -57 -32 0
-367 57 32 0
367 -57 32 0
367 57 -32 0
-368 -58 -33 0
-368 58 33 0
368 -58 33 0
368 58 -33 0
-369 -59 -34 0
-369 59 34 0
369 -59 34 0
369 59 -34 0
-370 -60 -35 0
-370 60 35 0
370 -60 35 0
370 60 -35 0
366 367 368 369 370 0
-366 367 368 369 370 0
366 -367 368 369 370 0
366 367 -368 369 370 0
366 367 368 -369 370 0
366 367 368 369 -370 0
-371 -56 -26 0
-371 56 26 0
371 -56 26 0
371 56 -26 0
-372 -57 -27 0
-372 57 27 0
372 -57 27 0
372 57 -27 0
-373 -58 -28 0
-373 58 28 0
373 -58 28 0
373 58 -28 0
-374 -59 -29 0
-374 59 29 0
374 -59 29 0
374 59 -29 0
-375 -60 -30 0
-375 60 30 0
375 -60 30 0
375 60 -30 0
371 372 373 374 375 0
-371 372 373 374 375 0
371 -372 373 374 375 0
371 372 -373 374 375 0
371 372 373 -374 375 0
371 372 373 374 -375 0
-376 -56 -21 0
-376 56 21 0
376 -56 21 0
376 56 -21 0
-377 -57 -22 0
-377 57 22 0
377 -57 22 0
377 57 -22 0
-378 -58 -23 0
-378 58 23 0
378 -58 23 0
378 58 -23 0
-379 -59 -24 0
-379 59 24 0
379 -59 24 0
379 59 -24 0
-380 -60 -25 0
-380 60 25 0
380 -60 25 0
380 60 -25 0
376 377 378 379 380 0
-376 377 378 379 380 0
376 -377 378 379 380 0
376 377 -378 379 380 0
376 377 378 -379 380 0
376 377 378 379 -380 0
-381 -56 -16 0
-381 56 16 0
381 -56 16 0
381 56 -16 0
-382 -57 -17 0
-382 57 17 0
382 -57 17 0
382 57 -17 0
-383 -58 -18 0
-383 58 18 0
383 -58 18 0
383 58 -18 0
-384 -59 -19 0
-384 59 19 0
384 -59 19 0
384 59 -19 0
-385 -60 -20 0
-385 60 20 0
385 -60 20 0
385 60 -20 0
381 382 383 384 385 0
-381 382 383 384 385 0
381 -382 383 384 385 0
381 382 -383 384 385 0
381 382 383 -384 385 0
381 382 383 384 -385 0
-386 -56 -11 0
-386 56 11 0
386 -56 11 0
386 56 -11 0
-387 -57 -12 0
-387 57 12 0
387 -57 12 0
387 57 -12 0
-388 -58 -13 0
-388 58 13 0
388 -58 13 0
388 58 -13 0
-389 -59 -14 0
-389 59 14 0
389 -59 14 0
389 59 -14 0
-390 -60 -15 0
-390 60 15 0
390 -60 15 0
390 60 -15 0
386 387 388 389 390 0
-386 387 388 389 390 0
386 -387 388 389 390 0
386 387 -388 389 390 0
386 387 388 -389 390 0
386 387 388 389 -390 0
-391 -56 -6 0
-391 56 6 0
391 -56 6 0
391 56 -6 0
-392 -57 -7 0
-392 57 7 0
392 -57 7 0
392 57 -7 0
-393 -58 -8 0
-393 58 8 0
393 -58 8 0
393 58 -8 0
-394 -59 -9 0
-394 59 9 0
394 -59 9 0
394 59 -9 0
-395 -60 -10 0
-395 60 10 0
395 -60 10 0
395 60 -10 0
391 392 393 394 395 0
-391 392 393 394 395 0
391 -392 393 394 395 0
391 392 -393 394 395 0
391 392 393 -394 395 0
391 392 393 394 -395 0
-396 -56 -1 0
-396 56 1 0
396 -56 1 0
396 56 -1 0
-397 -57 -2 0
-397 57 2 0
397 -57 2 0
397 57 -2 0
-398 -58 -3 0
-398 58 3 0
398 -58 3 0
398 58 -3 0
-399 -59 -4 0
-399 59 4 0
399 -59 4 0
399 59 -4 0
-400 -60 -5 0
-400 60 5 0
400 -60 5 0
400 60 -5 0
396 397 398 399 400 0
-396 397 398 399 400 0
396 -397 398 399 400 0
396 397 -398 399 400 0
396 397 398 -399 400 0
396 397 398 399 -400 0
-401 -61 -51 0
-401 61 51 0
401 -61 51 0
401 61 -51 0
-402 -62 -52 0
-402 62 52 0
402 -62 52 0
402 62 -52 0
-403 -63 -53 0
-403 63 53 0
403 -63 53 0
403 63 -53 0
-404 -64 -54 0
-404 64 54 0
404 -64 54 0
404 64 -54 0
-405 -65 -55 0
-405 65 55 0
405 -65 55 0
405 65 -55 0
401 402 403 404 405 0
-401 402 403 404 405 0
401 -402 403 404 405 0
401 402 -403 404 405 0
401 402 403 -404 405 0
401 402 403 404 -405 0
-406 -61 -46 0
-406 61 46 0
406 -61 46 0
406 61 -46 0
-407 -62 -47 0
-407 62 47 0
407 -62 47 0
407 62 -47 0
-408 -63 -48 0
-408 63 48 0
408 -63 48 0
408 63 -48 0
-409 -64 -49 0
-409 64 49 0
409 -64 49 0
409 64 -49 0
-410 -65 -50 0
-410 65 50 0
410 -65 50 0
410 65 -50 0
406 407 408 409 410 0
-406 407 408 409 410 0
406 -407 408 409 410 0
406 407 -408 409 410 0
406 407 408 -409 410 0
406 407 408 409 -410 0
-411 -61 -41 0
-411 61 41 0
411 -61 41 0
411 61 -41 0
-412 -62 -42 0
-412 62 42 0
412 -62 42 0
412 62 -42 0
-413 -63 -43 0
-413 63 43 0
413 -63 43 0
413 63 -43 0
-414 -64 -44 0
-414 64 44 0
414 -64 44 0
414 64 -44 0
-415 -65 -45 0
-415 65 45 0
415 -65 45 0
415 65 -45 0
411 412 413 414 415 0
-411 412 413 414 415 0
411 -412 413 414 415 0
411 412 -413 414 415 0
411 412 413 -414 415 0
411 412 413 414 -415 0
-416 -61 -36 0
-416 61 36 0
416 -61 36 0
416 61 -36 0
-417 -62 -37 0
-417 62 37 0
417 -62 37 0
417 62 -37 0
-418 -63 -38 0
-418 63 38 0
418 -63 38 0
418 63 -38 0
-419 -64 -39 0
-419 64 39 0
419 -64 39 0
419 64 -39 0
-420 -65 -40 0
-420 65 40 0
420 -65 40 0
420 65 -40 0
416 417 418 419 420 0
-416 417 418 419 420 0
416 -417 418 419 420 0
416 417 -418 419 420 0
416 417 418 -419 420 0
416 417 418 419 -420 0
-421 -61 -31 0
-421 61 31 0
421 -61 31 0
421 61 -31 0
-422 -62 -32 0
-422 62 32 0
422 -62 32 0
422 62 -32 0
-423 -63 -33 0
-423 63 33 0
423 -63 33 0
423 63 -33 0
-424 -64 -34 0
-424 64 34 0
424 -64 34 0
424 64 -34 0
-425 -65 -35 0
-425 65 35 0
425 -65 35 0
425 65 -35 0
421 422 423 424 425 0
-421 422 423 424 425 0
421 -422 423 424 425 0
421 422 -423 424 425 0
421 422 423 -424 425 0
421 422 423 424 -425 0
-426 -61 -26 0
-426 61 26 0
426 -61 26 0
426 61 -26 0
-427 -62 -27 0
-427 62 27 0
427 -62 27 0
427 62 -27 0
-428 -63 -28 0
-428 63 28 0
428 -63 28 0
428 63 -28 0
-429 -64 -29 0
-429 64 29 0
429 -64 29 0
429 64 -29 0
-430 -65 -30 0
-430 65 30 0
430 -65 30 0
430 65 -30 0
426 427 428 429 430 0
-426 427 428 429 430 0
426 -427 428 429 430 0
426 427 -428 429 430 0
426 427 428 -429 430 0
426 427 428 429 -430 0
-431 -61 -21 0
-431 61 21 0
431 -61 21 0
431 61 -21 0
-432 -62 -22 0
-432 62 22 0
432 -62 22 0
432 62 -22 0
-433 -63 -23 0
-433 63 23 0
433 -63 23 0
433 63 -23 0
-434 -64 -24 0
-434 64 24 0
434 -64 24 0
434 64 -24 0
-435 -65 -25 0
-435 65 25 0
435 -65 25 0
435 65 -25 0
431 432 433 434 435 0
-431 432 433 434 435 0
431 -432 433 434 435 0
431 432 -433 434 435 0
431 432 433 -434 435 0
431 432 433 434 -435 0
-436 -61 -16 0
-436 61 16 0
436 -61 16 0
436 61 -16 0
-437 -62 -17 0
-437 62 17 0
437 -62 17 0
437 62 -17 0
-438 -63 -18 0
-438 63 18 0
438 -63 18 0
438 63 -18 0
-439 -64 -19 0
-439 64 19 0
439 -64 19 0
439 64 -19 0
-440 -65 -20 0
-440 65 20 0
440 -65 20 0
440 65 -20 0
436 437 438 439 440 0
-436 437 438 439 440 0
436 -437 438 439 440 0
436 437 -438 439 440 0
436 437 438 -439 440 0
436 437 438 439 -440 0
-441 -61 -11 0
-441 61 11 0
441 -61 11 0
441 61 -11 0
-442 -62 -12 0
-442 62 12 0
442 -62 12 0
442 62 -12 0
-443 -63 -13 0
-443 63 13 0
443 -63 13 0
443 63 -13 0
-444 -64 -14 0
-444 64 14 0
444 -64 14 0
444 64 -14 0
-445 -65 -15 0
-445 65 15 0
445 -65 15 0
445 65 -15 0
441 442 443 444 445 0
-441 442 443 444 445 0
441 -442 443 444 445 0
441 442 -443 444 445 0
441 442 443 -444 445 0
441 442 443 444 -445 0
-446 -61 -6 0
-446 61 6 0
446 -61 6 0
446 61 -6 0
-447 -62 -7 0
-447 62 7 0
447 -62 7 0
447 62 -7 0
-448 -63 -8 0
-448 63 8 0
448 -63 8 0
448 63 -8 0
-449 -64 -9 0
-449 64 9 0
449 -64 9 0
449 64 -9 0
-450 -65 -10 0
-450 65 10 0
450 -65 10 0
450 65 -10 0
446 447 448 449 450 0
-446 447 448 449 450 0
446 -447 448 449 450 0
446 447 -448 449 450 0
446 447 448 -449 450 0
446 447 448 449 -450 0
-451 -61 -1 0
-451 61 1 0
451 -61 1 0
451 61 -1 0
-452 -62 -2 0
-452 62 2 0
452 -62 2 0
452 62 -2 0
-453 -63 -3 0
-453 63 3 0
453 -63 3 0
453 63 -3 0
-454 -64 -4 0
-454 64 4 0
454 -64 4 0
454 64 -4 0
-455 -65 -5 0
-455 65 5 0
455 -65 5 0
455 65 -5 0
451 452 453 454 455 0
-451 452 453 454 455 0
451 -452 453 454 455 0
451 452 -453 454 455 0
451 452 453 -454 455 0
451 452 453 454 -455 0
